solution status: optimal solution found
objective value:                     196306.795959681
d11(0,0)                                            1 	(obj:0)
d11(1,1)                                            1 	(obj:0)
d11(3,7)                                            1 	(obj:0)
d11(3,9)                                            1 	(obj:0)
d11(3,11)                                           1 	(obj:0)
d11(3,13)                                           1 	(obj:0)
d11(4,15)                                           1 	(obj:0)
d11(4,17)                                           1 	(obj:0)
d11(4,18)                                           1 	(obj:0)
d11(4,19)                                           1 	(obj:0)
d11(4,20)                                           1 	(obj:0)
d11(4,21)                                           1 	(obj:0)
d11(4,23)                                           1 	(obj:0)
d11(4,24)                            1.00000000000001 	(obj:0)
d11(4,25)                                           1 	(obj:0)
d11(4,27)                                           1 	(obj:0)
d11(4,28)                                           1 	(obj:0)
d11(4,29)                                           1 	(obj:0)
d11(4,30)                                           1 	(obj:0)
d11(5,31)                                           1 	(obj:0)
d11(5,32)                                           1 	(obj:0)
d11(5,33)                                           1 	(obj:0)
d11(5,34)                                           1 	(obj:0)
d11(5,35)                                           1 	(obj:0)
d11(5,36)                                           1 	(obj:0)
d11(5,37)                                           1 	(obj:0)
d11(5,38)                                           1 	(obj:0)
d11(5,39)                                           1 	(obj:0)
d11(5,40)                                           1 	(obj:0)
d11(5,41)                                           1 	(obj:0)
d11(5,42)                                           1 	(obj:0)
d11(5,43)                                           1 	(obj:0)
d11(5,44)                                           1 	(obj:0)
d11(5,45)                                           1 	(obj:0)
d11(5,46)                                           1 	(obj:0)
d11(5,47)                                           1 	(obj:0)
d11(5,48)                                           1 	(obj:0)
d11(5,49)                                           1 	(obj:0)
d11(5,50)                                           1 	(obj:0)
d11(5,51)                                           1 	(obj:0)
d11(5,52)                                           1 	(obj:0)
d11(5,53)                                           1 	(obj:0)
d11(5,55)                                           1 	(obj:0)
d11(5,56)                                           1 	(obj:0)
d11(5,57)                                           1 	(obj:0)
d11(5,58)                                           1 	(obj:0)
d11(5,59)                                           1 	(obj:0)
d11(5,60)                                           1 	(obj:0)
d11(5,61)                                           1 	(obj:0)
d11(5,62)                                           1 	(obj:0)
d12(1,2)                                            1 	(obj:0)
d12(2,4)                                            1 	(obj:0)
d12(2,6)                                            1 	(obj:0)
d12(3,8)                                            1 	(obj:0)
d12(3,10)                                           1 	(obj:0)
d12(3,12)                                           1 	(obj:0)
d12(3,14)                                           1 	(obj:0)
d12(6,64)                                           1 	(obj:0)
d12(6,66)                                           1 	(obj:0)
d12(6,68)                                           1 	(obj:0)
d12(6,70)                                           1 	(obj:0)
d12(6,72)                                           1 	(obj:0)
d12(6,74)                                           1 	(obj:0)
d12(6,76)                                           1 	(obj:0)
d12(6,78)                                           1 	(obj:0)
d12(6,80)                                           1 	(obj:0)
d12(6,82)                                           1 	(obj:0)
d12(6,84)                                           1 	(obj:0)
d12(6,86)                                           1 	(obj:0)
d12(6,88)                                           1 	(obj:0)
d12(6,90)                                           1 	(obj:0)
d12(6,92)                                           1 	(obj:0)
d12(6,94)                                           1 	(obj:0)
d12(6,96)                                           1 	(obj:0)
d12(6,98)                                           1 	(obj:0)
d12(6,100)                                          1 	(obj:0)
d12(6,102)                                          1 	(obj:0)
d12(6,104)                                          1 	(obj:0)
d12(6,106)                                          1 	(obj:0)
d12(6,108)                                          1 	(obj:0)
d12(6,110)                                          1 	(obj:0)
d12(6,112)                                          1 	(obj:0)
d12(6,114)                                          1 	(obj:0)
d12(6,116)                                          1 	(obj:0)
d12(6,118)                                          1 	(obj:0)
d12(6,120)                                          1 	(obj:0)
d12(6,122)                                          1 	(obj:0)
d12(6,124)                                          1 	(obj:0)
d12(6,126)                                          1 	(obj:0)
d21(4,15)                                           1 	(obj:0)
d21(4,17)                                           1 	(obj:0)
d21(4,19)                                           1 	(obj:0)
d21(4,23)                                           1 	(obj:0)
d21(5,31)                                           1 	(obj:0)
d21(5,32)                                           1 	(obj:0)
d21(5,33)                                           1 	(obj:0)
d21(5,34)                                           1 	(obj:0)
d21(5,35)                                           1 	(obj:0)
d21(5,36)                                           1 	(obj:0)
d21(5,37)                                           1 	(obj:0)
d21(5,39)                                           1 	(obj:0)
d21(5,40)                                           1 	(obj:0)
d21(5,41)                                           1 	(obj:0)
d21(5,43)                                           1 	(obj:0)
d21(5,47)                                           1 	(obj:0)
d21(5,48)                                           1 	(obj:0)
d21(5,49)                                           1 	(obj:0)
d21(5,51)                                           1 	(obj:0)
d21(5,55)                                           1 	(obj:0)
d21(6,63)                                           1 	(obj:0)
d21(6,64)                                           1 	(obj:0)
d21(6,65)                                           1 	(obj:0)
d21(6,66)                                           1 	(obj:0)
d21(6,67)                                           1 	(obj:0)
d21(6,68)                                           1 	(obj:0)
d21(6,69)                                           1 	(obj:0)
d21(6,70)                                           1 	(obj:0)
d21(6,71)                                           1 	(obj:0)
d21(6,72)                                           1 	(obj:0)
d21(6,73)                                           1 	(obj:0)
d21(6,74)                                           1 	(obj:0)
d21(6,75)                                           1 	(obj:0)
d21(6,76)                                           1 	(obj:0)
d21(6,79)                                           1 	(obj:0)
d21(6,80)                                           1 	(obj:0)
d21(6,81)                                           1 	(obj:0)
d21(6,82)                                           1 	(obj:0)
d21(6,83)                                           1 	(obj:0)
d21(6,84)                                           1 	(obj:0)
d21(6,85)                                           1 	(obj:0)
d21(6,87)                                           1 	(obj:0)
d21(6,88)                                           1 	(obj:0)
d21(6,89)                                           1 	(obj:0)
d21(6,91)                                           1 	(obj:0)
d21(6,95)                                           1 	(obj:0)
d21(6,96)                                           1 	(obj:0)
d21(6,97)                                           1 	(obj:0)
d21(6,98)                                           1 	(obj:0)
d21(6,99)                                           1 	(obj:0)
d21(6,100)                                          1 	(obj:0)
d21(6,103)                                          1 	(obj:0)
d21(6,104)                                          1 	(obj:0)
d21(6,105)                                          1 	(obj:0)
d21(6,107)                                          1 	(obj:0)
d21(6,111)                                          1 	(obj:0)
d21(6,112)                                          1 	(obj:0)
d21(6,113)                                          1 	(obj:0)
d21(6,115)                                          1 	(obj:0)
d21(6,119)                                          1 	(obj:0)
y2(6,100)                            1385.48851144895 	(obj:0)
y2(6,102)                            1385.48851144895 	(obj:0)
y2(6,104)                            1385.48851144895 	(obj:0)
y2(6,106)                            1385.48851144895 	(obj:0)
y2(6,108)                            1385.48851144895 	(obj:0)
y2(6,110)                            1385.48851144895 	(obj:0)
y2(6,112)                            1385.48851144895 	(obj:0)
y2(6,114)                            1385.48851144895 	(obj:0)
y2(6,116)                            1385.48851144895 	(obj:0)
y2(6,118)                            1385.48851144895 	(obj:0)
y2(6,120)                            1385.48851144895 	(obj:0)
y2(6,122)                            1385.48851144895 	(obj:0)
y2(6,124)                            1385.48851144895 	(obj:0)
y2(6,126)                            1385.48851144895 	(obj:0)
STE(1,1)                              8397.5745854921 	(obj:0)
STE(0,0)                                         9450 	(obj:0)
STE(1,2)                             9746.42571445571 	(obj:0)
STE(2,3)                              7641.5745854921 	(obj:0)
STE(2,4)                             8957.78867136861 	(obj:0)
STE(2,5)                             8990.42571445571 	(obj:0)
STE(2,6)                             10306.6398003322 	(obj:0)
STE(3,7)                             6589.14917104285 	(obj:0)
STE(3,8)                                    7938.0003 	(obj:0)
STE(3,9)                             7905.36325691936 	(obj:0)
STE(3,10)                            9254.21438587651 	(obj:0)
STE(3,11)                            7938.00030000646 	(obj:0)
STE(3,12)                            9286.85142896362 	(obj:0)
STE(3,13)                            9254.21438588294 	(obj:0)
STE(3,14)                            10603.0655148401 	(obj:0)
STE(4,15)                            4174.89927215402 	(obj:0)
STE(4,16)                            5833.14917104285 	(obj:0)
STE(4,17)                            5523.75040111117 	(obj:0)
STE(4,18)                                   7182.0003 	(obj:0)
STE(4,19)                            5491.11335803053 	(obj:0)
STE(4,20)                            7149.36325691936 	(obj:0)
STE(4,21)                            6839.96448698769 	(obj:0)
STE(4,22)                            8498.21438587651 	(obj:0)
STE(4,23)                            5523.75040111763 	(obj:0)
STE(4,24)                                   7182.0003 	(obj:0)
STE(4,25)                            6872.60153007479 	(obj:0)
STE(4,26)                            8530.85142896362 	(obj:0)
STE(4,27)                            6839.96448699411 	(obj:0)
STE(4,28)                            8498.21438588294 	(obj:0)
STE(4,29)                             8188.8156159513 	(obj:0)
STE(4,30)                            9847.06551484013 	(obj:0)
STE(5,31)                             1760.6493732652 	(obj:0)
STE(5,32)                            3418.89927215402 	(obj:0)
STE(5,33)                            3418.89927215403 	(obj:0)
STE(5,34)                            5077.14917104285 	(obj:0)
STE(5,35)                            3109.50050222236 	(obj:0)
STE(5,36)                            4767.75040111123 	(obj:0)
STE(5,37)                            4767.75040111118 	(obj:0)
STE(5,38)                                   6426.0003 	(obj:0)
STE(5,39)                            3076.86345914171 	(obj:0)
STE(5,40)                            4735.11335803053 	(obj:0)
STE(5,41)                            4735.11335803054 	(obj:0)
STE(5,42)                            6393.36325691942 	(obj:0)
STE(5,43)                            4425.71458809887 	(obj:0)
STE(5,44)                            6083.96448698769 	(obj:0)
STE(5,45)                             6083.9644869877 	(obj:0)
STE(5,46)                            7742.21438587651 	(obj:0)
STE(5,47)                            3109.50050222881 	(obj:0)
STE(5,48)                            4767.75040111763 	(obj:0)
STE(5,49)                            4767.75040111118 	(obj:0)
STE(5,50)                                   6426.0003 	(obj:0)
STE(5,51)                            4458.35163118597 	(obj:0)
STE(5,52)                            6116.60153007479 	(obj:0)
STE(5,53)                             6116.6015300748 	(obj:0)
STE(5,54)                            7774.85142896362 	(obj:0)
STE(5,55)                             4425.7145881053 	(obj:0)
STE(5,56)                            6083.96448699411 	(obj:0)
STE(5,57)                            6083.96448699412 	(obj:0)
STE(5,58)                            7742.21438588294 	(obj:0)
STE(5,59)                            5774.56571706248 	(obj:0)
STE(5,60)                             7432.8156159513 	(obj:0)
STE(5,61)                            7432.81561595131 	(obj:0)
STE(5,62)                            9091.06551484006 	(obj:0)
STE(6,63)                             1004.6493732652 	(obj:0)
STE(6,64)                            2320.86345914171 	(obj:0)
STE(6,65)                            2662.89927215402 	(obj:0)
STE(6,66)                            3979.11335803052 	(obj:0)
STE(6,67)                            2662.89927215403 	(obj:0)
STE(6,68)                            3979.11335803053 	(obj:0)
STE(6,69)                            4321.14917104285 	(obj:0)
STE(6,70)                            5637.36325691935 	(obj:0)
STE(6,71)                            2353.50050222236 	(obj:0)
STE(6,72)                            3669.71458809886 	(obj:0)
STE(6,73)                            4011.75040111123 	(obj:0)
STE(6,74)                            5327.96448698774 	(obj:0)
STE(6,75)                            4011.75040111118 	(obj:0)
STE(6,76)                            5327.96448698769 	(obj:0)
STE(6,77)                                   5670.0003 	(obj:0)
STE(6,78)                            6986.21438587651 	(obj:0)
STE(6,79)                            2320.86345914171 	(obj:0)
STE(6,80)                            3637.07754501822 	(obj:0)
STE(6,81)                            3979.11335803053 	(obj:0)
STE(6,82)                            5295.32744390704 	(obj:0)
STE(6,83)                            3979.11335803054 	(obj:0)
STE(6,84)                            5295.32744390705 	(obj:0)
STE(6,85)                            5637.36325691942 	(obj:0)
STE(6,86)                            6953.57734279593 	(obj:0)
STE(6,87)                            3669.71458809887 	(obj:0)
STE(6,88)                            4985.92867397537 	(obj:0)
STE(6,89)                            5327.96448698769 	(obj:0)
STE(6,90)                            6644.17857286419 	(obj:0)
STE(6,91)                             5327.9644869877 	(obj:0)
STE(6,92)                             6644.1785728642 	(obj:0)
STE(6,93)                            6986.21438587651 	(obj:0)
STE(6,94)                            8302.42847175302 	(obj:0)
STE(6,95)                            2353.50050222881 	(obj:0)
STE(6,96)                            3669.71458810532 	(obj:0)
STE(6,97)                            4011.75040111763 	(obj:0)
STE(6,98)                            5327.96448699414 	(obj:0)
STE(6,99)                            4011.75040111118 	(obj:0)
STE(6,100)                           5327.96448698769 	(obj:0)
STE(6,101)                                  5670.0003 	(obj:0)
STE(6,102)                           6986.21438587651 	(obj:0)
STE(6,103)                           3702.35163118597 	(obj:0)
STE(6,104)                           5018.56571706248 	(obj:0)
STE(6,105)                           5360.60153007479 	(obj:0)
STE(6,106)                           6676.81561595129 	(obj:0)
STE(6,107)                            5360.6015300748 	(obj:0)
STE(6,108)                            6676.8156159513 	(obj:0)
STE(6,109)                           7018.85142896362 	(obj:0)
STE(6,110)                           8335.06551484012 	(obj:0)
STE(6,111)                            3669.7145881053 	(obj:0)
STE(6,112)                            4985.9286739818 	(obj:0)
STE(6,113)                           5327.96448699411 	(obj:0)
STE(6,114)                           6644.17857287062 	(obj:0)
STE(6,115)                           5327.96448699412 	(obj:0)
STE(6,116)                           6644.17857287063 	(obj:0)
STE(6,117)                           6986.21438588294 	(obj:0)
STE(6,118)                           8302.42847175945 	(obj:0)
STE(6,119)                           5018.56571706248 	(obj:0)
STE(6,120)                           6334.77980293899 	(obj:0)
STE(6,121)                            6676.8156159513 	(obj:0)
STE(6,122)                            7993.0297018278 	(obj:0)
STE(6,123)                           6676.81561595131 	(obj:0)
STE(6,124)                           7993.02970182782 	(obj:0)
STE(6,125)                           8335.06551484007 	(obj:0)
STE(6,126)                           9651.27960071657 	(obj:0)
BG(5)                                4196.29249897959 	(obj:10)
WB(1)                                3259.55177567504 	(obj:0)
AVE(1)                               3259.55177567504 	(obj:0)
WB(2)                                3259.55588804169 	(obj:0)
AVE(2)                               3259.55588804169 	(obj:0)
WB(3)                                3579.36165209166 	(obj:0)
AVE(3)                               3579.36165209166 	(obj:0)
AVE(4)                               3579.36576445831 	(obj:0)
WB(5)                                3472.77007794174 	(obj:0)
AVE(5)                               3472.77007794174 	(obj:0)
WB(6)                                 372.95195629129 	(obj:0)
AVE(6)                                3046.3618950668 	(obj:0)
WG(4)                                3579.36576445831 	(obj:10)
WG(6)                                2673.40993877551 	(obj:10)
BG(1)                                 2945.6373602624 	(obj:10)
BG(2)                                2673.40993877551 	(obj:10)
BG(3)                                2945.63736020854 	(obj:10)
BG(4)                                616.926734521282 	(obj:10)
y1(1,1)                              266.782873057111 	(obj:0)
y1(3,7)                              266.782873004328 	(obj:0)
y1(3,9)                              266.782873004328 	(obj:0)
y1(3,11)                             266.782873004328 	(obj:0)
y1(3,13)                             266.782873004352 	(obj:0)
y1(4,15)                             1492.42490899994 	(obj:0)
y1(4,17)                             1492.42490899994 	(obj:0)
y1(4,19)                             1492.42490899994 	(obj:0)
y1(4,21)                             1492.42490899994 	(obj:0)
y1(4,23)                             1492.42490899994 	(obj:0)
y1(4,24)                         5.81145286560059e-009 	(obj:0)
y1(4,25)                             1492.42490899994 	(obj:0)
y1(4,27)                             1492.42490899994 	(obj:0)
y1(4,29)                             1492.42490899994 	(obj:0)
y1(5,31)                             1492.42490899994 	(obj:0)
y1(5,33)                             1492.42490899994 	(obj:0)
y1(5,35)                             1492.42490899994 	(obj:0)
y1(5,37)                             1492.42490899994 	(obj:0)
y1(5,39)                             1492.42490899994 	(obj:0)
y1(5,41)                             1492.42490899994 	(obj:0)
y1(5,43)                             1492.42490899994 	(obj:0)
y1(5,45)                             1492.42490899994 	(obj:0)
y1(5,47)                             1492.42490899994 	(obj:0)
y1(5,49)                             1492.42490899994 	(obj:0)
y1(5,51)                             1492.42490899994 	(obj:0)
y1(5,53)                             1492.42490899994 	(obj:0)
y1(5,55)                             1492.42490899994 	(obj:0)
y1(5,57)                             1492.42490899994 	(obj:0)
y1(5,59)                             1492.42490899994 	(obj:0)
y1(5,61)                             1492.42490899994 	(obj:0)
y2(1,2)                              1107.81654153233 	(obj:0)
y2(2,4)                              1385.48851144896 	(obj:0)
y2(2,6)                              1385.48851144896 	(obj:0)
y2(3,8)                              1107.81654158727 	(obj:0)
y2(3,10)                             1107.81654158727 	(obj:0)
y2(3,12)                             1107.81654158727 	(obj:0)
y2(3,14)                             1107.81654158727 	(obj:0)
y2(6,64)                             1385.48851144895 	(obj:0)
y2(6,66)                             1385.48851144895 	(obj:0)
y2(6,68)                             1385.48851144895 	(obj:0)
y2(6,70)                             1385.48851144895 	(obj:0)
y2(6,72)                             1385.48851144895 	(obj:0)
y2(6,74)                             1385.48851144895 	(obj:0)
y2(6,76)                             1385.48851144895 	(obj:0)
y2(6,78)                             1385.48851144895 	(obj:0)
y2(6,80)                             1385.48851144895 	(obj:0)
y2(6,82)                             1385.48851144895 	(obj:0)
y2(6,84)                             1385.48851144895 	(obj:0)
y2(6,86)                             1385.48851144895 	(obj:0)
y2(6,88)                             1385.48851144895 	(obj:0)
y2(6,90)                             1385.48851144895 	(obj:0)
y2(6,92)                             1385.48851144895 	(obj:0)
y2(6,94)                             1385.48851144895 	(obj:0)
y2(6,96)                             1385.48851144895 	(obj:0)
y2(6,98)                             1385.48851144895 	(obj:0)
